User:   ???@3007845e0667
Date:   Wed May  8 15:46:08 2019
Arch:   x86_64
Pid:    3965
Python: 3.6.7
gpaw:   /usr/local/lib/python3.6/dist-packages/gpaw
_gpaw:  /usr/local/lib/python3.6/dist-packages/
        _gpaw.cpython-36m-x86_64-linux-gnu.so
ase:    /usr/local/lib/python3.6/dist-packages/ase (version 3.17.0)
numpy:  /usr/local/lib/python3.6/dist-packages/numpy (version 1.16.3)
scipy:  /usr/local/lib/python3.6/dist-packages/scipy (version 1.2.1)
units:  Angstrom and eV
cores:  1

Input parameters:
  h: 0.1
  kpts: {gamma: True,
         size: (8, 8, 8)}
  mode: {ecut: 500.0,
         gammacentered: False,
         name: pw}
  occupations: {name: fermi-dirac,
                width: 0.001}
  xc: PBE

System changes: positions, numbers, cell, pbc, initial_charges, initial_magmoms

Initialize ...

Bi-setup:
  name: Bismuth
  id: 9be4637686759ed046cc83ce779b1919
  Z: 83
  valence: 15
  core: 68
  charge: 0.0
  file: /content/gpaw-data/gpaw-setups-0.9.20000/Bi.PBE.gz
  cutoffs: 1.21(comp), 2.23(filt), 2.33(core), lmax=2
  valence states:
                energy  radius
    6s(2.00)   -14.385   1.286
    6p(3.00)    -4.580   1.275
    5d(10.00)   -27.119   1.349
    *s          12.827   1.286
    *p          22.631   1.275
    *d           0.093   1.349

  Using partial waves for Bi as LCAO basis

Se-setup:
  name: Selenium
  id: 2336a0774a38175ff9db42ee3890f88a
  Z: 34
  valence: 6
  core: 28
  charge: 0.0
  file: /content/gpaw-data/gpaw-setups-0.9.20000/Se.PBE.gz
  cutoffs: 0.85(comp), 1.77(filt), 2.67(core), lmax=2
  valence states:
                energy  radius
    4s(2.00)   -17.277   0.847
    4p(4.00)    -6.512   1.005
    *s           9.935   0.847
    *p          20.699   1.005
    *d           0.000   0.847

  Using partial waves for Se as LCAO basis

Reference energy: -1368007.362297

Spin-paired calculation

Occupation numbers:
  Fermi-Dirac: width=0.0010 eV

Convergence criteria:
  Maximum total energy change: 0.0005 eV / electron
  Maximum integral of absolute density change: 0.0001 electrons
  Maximum integral of absolute eigenstate change: 4e-08 eV^2
  Maximum number of iterations: 333

Symmetries present (total): 12

  ( 1  0  0)  ( 1  0  0)  ( 0  1  0)  ( 0  1  0)  ( 0  0  1)  ( 0  0  1)
  ( 0  1  0)  ( 0  0  1)  ( 1  0  0)  ( 0  0  1)  ( 1  0  0)  ( 0  1  0)
  ( 0  0  1)  ( 0  1  0)  ( 0  0  1)  ( 1  0  0)  ( 0  1  0)  ( 1  0  0)

  ( 0  0 -1)  ( 0  0 -1)  ( 0 -1  0)  ( 0 -1  0)  (-1  0  0)  (-1  0  0)
  ( 0 -1  0)  (-1  0  0)  ( 0  0 -1)  (-1  0  0)  ( 0  0 -1)  ( 0 -1  0)
  (-1  0  0)  ( 0 -1  0)  (-1  0  0)  ( 0  0 -1)  ( 0 -1  0)  ( 0  0 -1)

512 k-points: 8 x 8 x 8 Monkhorst-Pack grid + [1/16,1/16,1/16]
65 k-points in the irreducible part of the Brillouin zone
       k-points in crystal coordinates                weights
   0:     0.00000000    0.00000000    0.00000000          1/512
   1:     0.12500000    0.00000000   -0.12500000          6/512
   2:     0.12500000    0.00000000    0.00000000          6/512
   3:     0.12500000    0.12500000   -0.12500000          6/512
   4:     0.12500000    0.12500000    0.00000000          6/512
   5:     0.12500000    0.12500000    0.12500000          2/512
   6:     0.25000000   -0.12500000   -0.12500000          6/512
   7:     0.25000000    0.00000000   -0.25000000          6/512
   8:     0.25000000    0.00000000   -0.12500000         12/512
   9:     0.25000000    0.00000000    0.00000000          6/512
          ...
  64:     0.50000000    0.50000000    0.50000000          1/512

Wave functions: Plane wave expansion
  Cutoff energy: 500.000 eV
  Number of coefficients (min, max): 3561, 3621
  Pulay-stress correction: 0.000000 eV/Ang^3 (de/decut=0.000000)
  Using FFTW library
  ScaLapack parameters: grid=1x1, blocksize=None
  Wavefunction extrapolation:
    Improved wavefunction reuse through dual PAW basis

Eigensolver
   Davidson(niter=2, smin=None, normalize=True)

Densities:
  Coarse grid: 36*36*36 grid
  Fine grid: 72*72*72 grid
  Total Charge: 0.000000

Density mixing:
  Method: separate
  Backend: pulay
  Linear mixing parameter: 0.05
  Mixing with 5 old densities
  Damping of long wave oscillations: 50

Hamiltonian:
  XC and Coulomb potentials evaluated on a 72*72*72 grid
  Using the PBE Exchange-Correlation functional

XC parameters: PBE with 2 nearest neighbor stencil

Total number of cores used: 1

Number of atoms: 5
Number of atomic orbitals: 30
Number of bands in calculation: 30
Bands to converge: occupied states only
Number of valence electrons: 48

... initialized

Initializing position-dependent things.

Density initialized from atomic densities
Creating initial wave functions:
  30 bands from LCAO basis set

       Bi

[...]

       Bi

Positions:
   0 Bi     0.000000   -0.000000   11.427360    ( 0.0000,  0.0000,  0.0000)
   1 Bi    -0.000000    0.000000  -11.427360    ( 0.0000,  0.0000,  0.0000)
   2 Se     0.000000    0.000000    0.000000    ( 0.0000,  0.0000,  0.0000)
   3 Se    -0.000000    0.000000    5.899840    ( 0.0000,  0.0000,  0.0000)
   4 Se     0.000000   -0.000000   -5.899840    ( 0.0000,  0.0000,  0.0000)

Unit cell:
           periodic     x           y           z      points  spacing
  1. axis:    yes   -2.069000   -1.194538    9.546667    36     0.0988
  2. axis:    yes    2.069000   -1.194538    9.546667    36     0.0988
  3. axis:    yes    0.000000    2.389075    9.546667    36     0.0988

  Lengths:   9.841063   9.841063   9.841063
  Angles:   24.273011  24.273011  24.273011

Effective grid spacing dv^(1/3) = 0.1448

                     log10-error:    total        iterations:
           time      wfs    density  energy       fermi  poisson
iter:   1  15:47:35  -0.07   +inf   -22.131829    0
iter:   2  15:48:09  -1.95  -1.17   -21.852092    0
iter:   3  15:48:43  -2.33  -1.25   -21.523549    11
iter:   4  15:49:18  -2.48  -1.47   -21.441823    0
iter:   5  15:49:52  -3.63  -1.76   -21.446375    0
iter:   6  15:50:27  -3.33  -1.79   -21.425447    0
iter:   7  15:51:02  -3.48  -1.99   -21.431872    0
iter:   8  15:51:37  -4.64  -2.54   -21.430407    0
iter:   9  15:52:12  -4.49  -2.60   -21.429763    0
iter:  10  15:52:47  -4.96  -2.90   -21.429885    0
iter:  11  15:53:23  -5.78  -3.16   -21.429928    0
iter:  12  15:53:58  -5.88  -3.09   -21.429908    0
iter:  13  15:54:33  -5.59  -2.94   -21.429940    0
iter:  14  15:55:06  -6.23  -3.09   -21.429954    0
iter:  15  15:55:40  -5.41  -3.14   -21.430002    0
iter:  16  15:56:15  -6.85  -3.55   -21.429987    0
iter:  17  15:56:51  -5.96  -3.66   -21.429990    0
iter:  18  15:57:26  -7.43  -3.85   -21.429991    0
iter:  19  15:58:01  -7.94  -4.17   -21.429990    0

Converged after 19 iterations.

Dipole moment: (-0.000000, -0.000000, -0.000000) |e|*Ang

Energy contributions relative to reference atoms: (reference = -1368007.362297)

Kinetic:        +53.547637
Potential:      -51.887066
External:        +0.000000
XC:             -19.975154
Entropy (-ST):   -0.000000
Local:           -3.115406
Free energy:    -21.429990
Extrapolated:   -21.429990

Fermi level: 6.09715

Showing only first 2 kpts
 Kpt  Band  Eigenvalues  Occupancy
  0    22      5.06074    0.00391
  0    23      6.06226    0.00391
  0    24      6.21901    0.00000
  0    25      7.13842    0.00000

  1    22      5.43892    0.02344
  1    23      5.51344    0.02344
  1    24      7.04305    0.00000
  1    25      7.08746    0.00000

Writing to gs_Bi2Se3.gpw (mode='')

Date: Wed May  8 15:58:01 2019