User:   ???@85eae338792d
Date:   Thu May  9 05:34:46 2019
Arch:   x86_64
Pid:    5005
Python: 3.6.7
gpaw:   /usr/local/lib/python3.6/dist-packages/gpaw
_gpaw:  /usr/local/lib/python3.6/dist-packages/
        _gpaw.cpython-36m-x86_64-linux-gnu.so
ase:    /usr/local/lib/python3.6/dist-packages/ase (version 3.17.0)
numpy:  /usr/local/lib/python3.6/dist-packages/numpy (version 1.16.3)
scipy:  /usr/local/lib/python3.6/dist-packages/scipy (version 1.2.1)
units:  Angstrom and eV
cores:  1

Input parameters:
  kpts: [8 8 8]
  mode: {ecut: 200.0,
         gammacentered: False,
         name: pw}
  occupations: {name: fermi-dirac,
                width: 0.01}
  random: True
  xc: PBE

System changes: positions, numbers, cell, pbc, initial_charges, initial_magmoms

Initialize ...

C-setup:
  name: Carbon
  id: 4aa54d4b901d75f77cc0ea3eec22967b
  Z: 6
  valence: 4
  core: 2
  charge: 0.0
  file: /content/gpaw-data/gpaw-setups-0.9.20000/C.PBE.gz
  cutoffs: 0.64(comp), 1.14(filt), 1.14(core), lmax=2
  valence states:
                energy  radius
    2s(2.00)   -13.751   0.635
    2p(2.00)    -5.284   0.635
    *s          13.461   0.635
    *p          21.927   0.635
    *d           0.000   0.635

  Using partial waves for C as LCAO basis

Reference energy: -2055.256231

Spin-paired calculation

Occupation numbers:
  Fermi-Dirac: width=0.0100 eV

Convergence criteria:
  Maximum total energy change: 0.0005 eV / electron
  Maximum integral of absolute density change: 0.0001 electrons
  Maximum integral of absolute eigenstate change: 4e-08 eV^2
  Maximum number of iterations: 333

Symmetries present (total): 24

  ( 1  0  0)  ( 1  0  0)  ( 1  0 -1)  ( 1  0 -1)  ( 1 -1  0)  ( 1 -1  0)
  ( 0  1  0)  ( 0  0  1)  ( 0  1 -1)  ( 0  0 -1)  ( 0 -1  1)  ( 0 -1  0)
  ( 0  0  1)  ( 0  1  0)  ( 0  0 -1)  ( 0  1 -1)  ( 0 -1  0)  ( 0 -1  1)

[...]

  ( 0  0 -1)  ( 0  0 -1)  ( 0 -1  1)  ( 0 -1  1)  ( 0 -1  0)  ( 0 -1  0)
  ( 1  0 -1)  ( 0  1 -1)  ( 1 -1  0)  ( 0 -1  0)  ( 1 -1  0)  ( 0 -1  1)
  ( 0  1 -1)  ( 1  0 -1)  ( 0 -1  0)  ( 1 -1  0)  ( 0 -1  1)  ( 1 -1  0)

  (-1  1  0)  (-1  1  0)  (-1  0  1)  (-1  0  1)  (-1  0  0)  (-1  0  0)
  (-1  0  1)  (-1  0  0)  (-1  1  0)  (-1  0  0)  (-1  1  0)  (-1  0  1)
  (-1  0  0)  (-1  0  1)  (-1  0  0)  (-1  1  0)  (-1  0  1)  (-1  1  0)
Note: your k-points are not as symmetric as your crystal!

512 k-points: 8 x 8 x 8 Monkhorst-Pack grid
60 k-points in the irreducible part of the Brillouin zone
       k-points in crystal coordinates                weights
   0:     0.06250000    0.06250000   -0.06250000          6/512
   1:     0.06250000    0.06250000    0.06250000          2/512
   2:     0.18750000   -0.06250000   -0.06250000          6/512
   3:     0.18750000    0.06250000   -0.18750000         12/512
   4:     0.18750000    0.06250000   -0.06250000         12/512
   5:     0.18750000    0.06250000    0.06250000          6/512
   6:     0.18750000    0.18750000   -0.18750000          6/512
   7:     0.18750000    0.18750000   -0.06250000          6/512
   8:     0.18750000    0.18750000    0.06250000          6/512
   9:     0.18750000    0.18750000    0.18750000          2/512
          ...
  59:     0.43750000    0.43750000    0.43750000          2/512

Wave functions: Plane wave expansion
  Cutoff energy: 200.000 eV
  Number of coefficients (min, max): 64, 77
  Pulay-stress correction: 0.000000 eV/Ang^3 (de/decut=0.000000)
  Using FFTW library
  ScaLapack parameters: grid=1x1, blocksize=None
  Wavefunction extrapolation:
    Improved wavefunction reuse through dual PAW basis

Eigensolver
   Davidson(niter=2, smin=None, normalize=True)

Densities:
  Coarse grid: 7*7*7 grid
  Fine grid: 14*14*14 grid
  Total Charge: 0.000000

Density mixing:
  Method: separate
  Backend: pulay
  Linear mixing parameter: 0.05
  Mixing with 5 old densities
  Damping of long wave oscillations: 50

Hamiltonian:
  XC and Coulomb potentials evaluated on a 14*14*14 grid
  Using the PBE Exchange-Correlation functional

XC parameters: PBE with 2 nearest neighbor stencil

Total number of cores used: 1

Number of atoms: 2
Number of atomic orbitals: 8
Number of bands in calculation: 8
Bands to converge: occupied states only
Number of valence electrons: 8

... initialized

Initializing position-dependent things.

Density initialized from atomic densities
Creating initial wave functions:
  8 bands from LCAO basis set

          C
       C

Positions:
   0 C      0.000000    0.000000    0.000000    ( 0.0000,  0.0000,  0.0000)
   1 C      0.891750    0.891750    0.891750    ( 0.0000,  0.0000,  0.0000)

Unit cell:
           periodic     x           y           z      points  spacing
  1. axis:    yes    0.000000    1.783500    1.783500     7     0.2942
  2. axis:    yes    1.783500    0.000000    1.783500     7     0.2942
  3. axis:    yes    1.783500    1.783500    0.000000     7     0.2942

  Lengths:   2.522250   2.522250   2.522250
  Angles:   60.000000  60.000000  60.000000

Effective grid spacing dv^(1/3) = 0.3210

                     log10-error:    total        iterations:
           time      wfs    density  energy       fermi  poisson
iter:   1  05:34:49  +1.34   +inf   -11.975009    0
iter:   2  05:34:50  -3.08  -0.82   -11.954570    0
iter:   3  05:34:50  -1.87  -0.84   -11.796892    0
iter:   4  05:34:51  -4.76  -1.64   -11.793363    0
iter:   5  05:34:51  -6.99  -1.74   -11.793297    0
iter:   6  05:34:52  -3.39  -1.74   -11.785102    0
iter:   7  05:34:53  -4.11  -2.69   -11.785481    0
iter:   8  05:34:53  -4.38  -2.37   -11.785067    0
iter:   9  05:34:54  -6.90  -2.95   -11.785041    0
iter:  10  05:34:55  -7.88  -3.18   -11.785037    0
iter:  11  05:34:55  -5.76  -3.24   -11.785029    0
iter:  12  05:34:56  -6.27  -3.35   -11.785027    0
iter:  13  05:34:57  -7.56  -3.82   -11.785026    0
iter:  14  05:34:57  -9.56  -5.15   -11.785026    0

Converged after 14 iterations.

Dipole moment: (-1.961745, -1.961745, -1.961745) |e|*Ang

Energy contributions relative to reference atoms: (reference = -2055.256231)

Kinetic:         +0.335848
Potential:       +3.943090
External:        +0.000000
XC:             -17.604551
Entropy (-ST):   -0.000000
Local:           +1.540587
Free energy:    -11.785026
Extrapolated:   -11.785026

Fermi level: 14.11796

Showing only first 2 kpts
 Kpt  Band  Eigenvalues  Occupancy
  0     2     12.61059    0.02344
  0     3     13.20354    0.02344
  0     4     19.08775    0.00000
  0     5     20.49026    0.00000

  1     2     13.63807    0.00781
  1     3     13.64023    0.00781
  1     4     19.26089    0.00000
  1     5     19.26127    0.00000

Writing to C_gs.gpw (mode='')

Date: Thu May  9 05:35:04 2019