User:   ???@85eae338792d
Date:   Thu May  9 06:10:17 2019
Arch:   x86_64
Pid:    5329
Python: 3.6.7
gpaw:   /usr/local/lib/python3.6/dist-packages/gpaw
_gpaw:  /usr/local/lib/python3.6/dist-packages/
        _gpaw.cpython-36m-x86_64-linux-gnu.so
ase:    /usr/local/lib/python3.6/dist-packages/ase (version 3.17.0)
numpy:  /usr/local/lib/python3.6/dist-packages/numpy (version 1.16.3)
scipy:  /usr/local/lib/python3.6/dist-packages/scipy (version 1.2.1)
units:  Angstrom and eV
cores:  1

Input parameters:
  kpts: [8 8 8]
  mode: {ecut: 200.0,
         gammacentered: False,
         name: pw}
  occupations: {name: fermi-dirac,
                width: 0.01}
  random: True
  xc: PBE

System changes: positions, numbers, cell, pbc, initial_charges, initial_magmoms

Initialize ...

Ga-setup:
  name: Gallium
  id: 818a1f824512bb44ae6134ae13584d59
  Z: 31
  valence: 3
  core: 28
  charge: 0.0
  file: /content/gpaw-data/gpaw-setups-0.9.20000/Ga.PBE.gz
  cutoffs: 1.16(comp), 2.06(filt), 4.17(core), lmax=2
  valence states:
                energy  radius
    4s(2.00)    -8.945   1.164
    4p(1.00)    -2.580   1.164
    *s          18.266   1.164
    *p          24.631   1.164
    *d           0.000   1.164

  Using partial waves for Ga as LCAO basis

N-setup:
  name: Nitrogen
  id: f7500608b86eaa90eef8b1d9a670dc53
  Z: 7
  valence: 5
  core: 2
  charge: 0.0
  file: /content/gpaw-data/gpaw-setups-0.9.20000/N.PBE.gz
  cutoffs: 0.58(comp), 1.11(filt), 0.96(core), lmax=2
  valence states:
                energy  radius
    2s(2.00)   -18.583   0.603
    2p(3.00)    -7.089   0.529
    *s           8.629   0.603
    *p          20.123   0.529
    *d           0.000   0.577

  Using partial waves for N as LCAO basis

Reference energy: -108732.786066

Spin-paired calculation

Occupation numbers:
  Fermi-Dirac: width=0.0100 eV

Convergence criteria:
  Maximum total energy change: 0.0005 eV / electron
  Maximum integral of absolute density change: 0.0001 electrons
  Maximum integral of absolute eigenstate change: 4e-08 eV^2
  Maximum number of iterations: 333

Symmetries present (total): 6

  ( 1  1  0)  ( 1  0  0)  ( 0  1  0)  ( 0 -1  0)  (-1  0  0)  (-1 -1  0)
  ( 0 -1  0)  ( 0  1  0)  (-1 -1  0)  (-1  0  0)  ( 1  1  0)  ( 1  0  0)
  ( 0  0  1)  ( 0  0  1)  ( 0  0  1)  ( 0  0  1)  ( 0  0  1)  ( 0  0  1)
Note: your k-points are not as symmetric as your crystal!

512 k-points: 8 x 8 x 8 Monkhorst-Pack grid
144 k-points in the irreducible part of the Brillouin zone
       k-points in crystal coordinates                weights
   0:     0.06250000   -0.06250000   -0.43750000          2/512
   1:     0.06250000   -0.06250000   -0.31250000          2/512
   2:     0.06250000   -0.06250000   -0.18750000          2/512
   3:     0.06250000   -0.06250000   -0.06250000          2/512
   4:     0.06250000   -0.06250000    0.06250000          2/512
   5:     0.06250000   -0.06250000    0.18750000          2/512
   6:     0.06250000   -0.06250000    0.31250000          2/512
   7:     0.06250000   -0.06250000    0.43750000          2/512
   8:     0.06250000    0.06250000    0.06250000          4/512
   9:     0.06250000    0.06250000    0.18750000          4/512
          ...
 143:     0.43750000    0.43750000    0.43750000          4/512

Wave functions: Plane wave expansion
  Cutoff energy: 200.000 eV
  Number of coefficients (min, max): 286, 304
  Pulay-stress correction: 0.000000 eV/Ang^3 (de/decut=0.000000)
  Using FFTW library
  ScaLapack parameters: grid=1x1, blocksize=None
  Wavefunction extrapolation:
    Improved wavefunction reuse through dual PAW basis

Eigensolver
   Davidson(niter=2, smin=None, normalize=True)

Densities:
  Coarse grid: 9*9*18 grid
  Fine grid: 18*18*36 grid
  Total Charge: 0.000000

Density mixing:
  Method: separate
  Backend: pulay
  Linear mixing parameter: 0.05
  Mixing with 5 old densities
  Damping of long wave oscillations: 50

Hamiltonian:
  XC and Coulomb potentials evaluated on a 18*18*36 grid
  Using the PBE Exchange-Correlation functional

XC parameters: PBE with 2 nearest neighbor stencil

Total number of cores used: 1

Number of atoms: 4
Number of atomic orbitals: 16
Number of bands in calculation: 14
Bands to converge: occupied states only
Number of valence electrons: 16

... initialized

Initializing position-dependent things.

Density initialized from atomic densities
Creating initial wave functions:
  14 bands from LCAO basis set

       N Ga

         N

       Ga

Positions:
   0 Ga     0.000000    0.000000    0.000000    ( 0.0000,  0.0000,  0.0000)
   1 N     -0.000000    1.839438    0.644064    ( 0.0000,  0.0000,  0.0000)
   2 Ga    -0.000000    1.839438    2.593000    ( 0.0000,  0.0000,  0.0000)
   3 N      0.000000    0.000000    3.237064    ( 0.0000,  0.0000,  0.0000)

Unit cell:
           periodic     x           y           z      points  spacing
  1. axis:    yes    3.186000    0.000000    0.000000     9     0.3066
  2. axis:    yes   -1.593000    2.759157    0.000000     9     0.3066
  3. axis:    yes    0.000000    0.000000    5.186000    18     0.2881

  Lengths:   3.186000   3.186000   5.186000
  Angles:   90.000000  90.000000 120.000000

Effective grid spacing dv^(1/3) = 0.3150

                     log10-error:    total        iterations:
           time      wfs    density  energy       fermi  poisson
iter:   1  06:10:28  +0.92   +inf    -1.384204    0
iter:   2  06:10:32  -1.35  -0.74    -1.394629    0
iter:   3  06:10:36  -1.71  -0.77    -0.984824    0
iter:   4  06:10:40  -2.32  -1.28    -0.959867    0
iter:   5  06:10:44  -2.81  -1.75    -0.946430    0
iter:   6  06:10:48  -3.18  -2.03    -0.946665    0
iter:   7  06:10:52  -3.06  -2.34    -0.946431    0
iter:   8  06:10:56  -4.08  -2.31    -0.945322    0
iter:   9  06:11:00  -4.57  -3.05    -0.945318    0
iter:  10  06:11:04  -5.29  -3.50    -0.945355    0
iter:  11  06:11:08  -5.84  -3.28    -0.945358    0
iter:  12  06:11:12  -5.89  -3.87    -0.945364    0
iter:  13  06:11:16  -6.58  -3.85    -0.945363    0
iter:  14  06:11:20  -8.30  -4.36    -0.945367    0

Converged after 14 iterations.

Dipole moment: (-2.217265, 1.280139, -1.673924) |e|*Ang

Energy contributions relative to reference atoms: (reference = -108732.786066)

Kinetic:        +16.633144
Potential:       +4.971356
External:        +0.000000
XC:             -25.888220
Entropy (-ST):   -0.000000
Local:           +3.338353
Free energy:     -0.945367
Extrapolated:    -0.945367

Fermi level: 7.83981

Showing only first 2 kpts
 Kpt  Band  Eigenvalues  Occupancy
  0     6      6.67175    0.00781
  0     7      6.89715    0.00781
  0     8     10.61394    0.00000
  0     9     10.86620    0.00000

  1     6      6.96618    0.00781
  1     7      7.10571    0.00781
  1     8     10.05944    0.00000
  1     9     10.90103    0.00000

Writing to GaN_gs.gpw (mode='')

Date: Thu May  9 06:11:35 2019