User:   ???@c99700d482a4
Date:   Thu May  9 14:28:41 2019
Arch:   x86_64
Pid:    3077
Python: 3.6.7
gpaw:   /usr/local/lib/python3.6/dist-packages/gpaw
_gpaw:  /usr/local/lib/python3.6/dist-packages/
        _gpaw.cpython-36m-x86_64-linux-gnu.so
ase:    /usr/local/lib/python3.6/dist-packages/ase (version 3.17.0)
numpy:  /usr/local/lib/python3.6/dist-packages/numpy (version 1.16.3)
scipy:  /usr/local/lib/python3.6/dist-packages/scipy (version 1.2.1)
units:  Angstrom and eV
cores:  1

Input parameters:
  h: 0.1
  kpts: {gamma: True,
         size: (8, 8, 8)}
  mode: {ecut: 500.0,
         gammacentered: False,
         name: pw}
  occupations: {name: fermi-dirac,
                width: 0.001}
  xc: PBE

System changes: positions, numbers, cell, pbc, initial_charges, initial_magmoms

Initialize ...

Bi-setup:
  name: Bismuth
  id: 9be4637686759ed046cc83ce779b1919
  Z: 83
  valence: 15
  core: 68
  charge: 0.0
  file: /content/gpaw-data/gpaw-setups-0.9.20000/Bi.PBE.gz
  cutoffs: 1.21(comp), 2.23(filt), 2.33(core), lmax=2
  valence states:
                energy  radius
    6s(2.00)   -14.385   1.286
    6p(3.00)    -4.580   1.275
    5d(10.00)   -27.119   1.349
    *s          12.827   1.286
    *p          22.631   1.275
    *d           0.093   1.349

  Using partial waves for Bi as LCAO basis

Te-setup:
  name: Tellurium
  id: e44b9ef4772d7e5a1c6a47e6d6496588
  Z: 52
  valence: 6
  core: 46
  charge: 0.0
  file: /content/gpaw-data/gpaw-setups-0.9.20000/Te.PBE.gz
  cutoffs: 1.14(comp), 2.09(filt), 3.17(core), lmax=2
  valence states:
                energy  radius
    5s(2.00)   -15.089   1.180
    5p(4.00)    -5.955   1.196
    *s          12.123   1.180
    *p          21.256   1.196
    *d           0.000   1.238

  Using partial waves for Te as LCAO basis

Reference energy: -1724068.816207

Spin-paired calculation

Occupation numbers:
  Fermi-Dirac: width=0.0010 eV

Convergence criteria:
  Maximum total energy change: 0.0005 eV / electron
  Maximum integral of absolute density change: 0.0001 electrons
  Maximum integral of absolute eigenstate change: 4e-08 eV^2
  Maximum number of iterations: 333

Symmetries present (total): 12

  ( 1  0  0)  ( 1  0  0)  ( 0  1  0)  ( 0  1  0)  ( 0  0  1)  ( 0  0  1)
  ( 0  1  0)  ( 0  0  1)  ( 1  0  0)  ( 0  0  1)  ( 1  0  0)  ( 0  1  0)
  ( 0  0  1)  ( 0  1  0)  ( 0  0  1)  ( 1  0  0)  ( 0  1  0)  ( 1  0  0)

  ( 0  0 -1)  ( 0  0 -1)  ( 0 -1  0)  ( 0 -1  0)  (-1  0  0)  (-1  0  0)
  ( 0 -1  0)  (-1  0  0)  ( 0  0 -1)  (-1  0  0)  ( 0  0 -1)  ( 0 -1  0)
  (-1  0  0)  ( 0 -1  0)  (-1  0  0)  ( 0  0 -1)  ( 0 -1  0)  ( 0  0 -1)

512 k-points: 8 x 8 x 8 Monkhorst-Pack grid + [1/16,1/16,1/16]
65 k-points in the irreducible part of the Brillouin zone
       k-points in crystal coordinates                weights
   0:     0.00000000    0.00000000    0.00000000          1/512
   1:     0.12500000    0.00000000   -0.12500000          6/512
   2:     0.12500000    0.00000000    0.00000000          6/512
   3:     0.12500000    0.12500000   -0.12500000          6/512
   4:     0.12500000    0.12500000    0.00000000          6/512
   5:     0.12500000    0.12500000    0.12500000          2/512
   6:     0.25000000   -0.12500000   -0.12500000          6/512
   7:     0.25000000    0.00000000   -0.25000000          6/512
   8:     0.25000000    0.00000000   -0.12500000         12/512
   9:     0.25000000    0.00000000    0.00000000          6/512
          ...
  64:     0.50000000    0.50000000    0.50000000          1/512

Wave functions: Plane wave expansion
  Cutoff energy: 500.000 eV
  Number of coefficients (min, max): 4231, 4314
  Pulay-stress correction: 0.000000 eV/Ang^3 (de/decut=0.000000)
  Using FFTW library
  ScaLapack parameters: grid=1x1, blocksize=None
  Wavefunction extrapolation:
    Improved wavefunction reuse through dual PAW basis

Eigensolver
   Davidson(niter=2, smin=None, normalize=True)

Densities:
  Coarse grid: 40*40*40 grid
  Fine grid: 80*80*80 grid
  Total Charge: 0.000000

Density mixing:
  Method: separate
  Backend: pulay
  Linear mixing parameter: 0.05
  Mixing with 5 old densities
  Damping of long wave oscillations: 50

Hamiltonian:
  XC and Coulomb potentials evaluated on a 80*80*80 grid
  Using the PBE Exchange-Correlation functional

XC parameters: PBE with 2 nearest neighbor stencil

Total number of cores used: 1

Number of atoms: 5
Number of atomic orbitals: 30
Number of bands in calculation: 30
Bands to converge: occupied states only
Number of valence electrons: 48

... initialized

Initializing position-dependent things.

Density initialized from atomic densities
Creating initial wave functions:
  30 bands from LCAO basis set

       Bi

[...]

       Bi

Positions:
   0 Bi    -0.000000    0.000000   12.194800    ( 0.0000,  0.0000,  0.0000)
   1 Bi     0.000000   -0.000000  -12.194800    ( 0.0000,  0.0000,  0.0000)
   2 Te     0.000000    0.000000    0.000000    ( 0.0000,  0.0000,  0.0000)
   3 Te    -0.000000    0.000000    6.463244    ( 0.0000,  0.0000,  0.0000)
   4 Te     0.000000   -0.000000   -6.463244    ( 0.0000,  0.0000,  0.0000)

Unit cell:
           periodic     x           y           z      points  spacing
  1. axis:    yes   -2.191750   -1.265407   10.162333    40     0.0942
  2. axis:    yes    2.191750   -1.265407   10.162333    40     0.0942
  3. axis:    yes    0.000000    2.530815   10.162333    40     0.0942

  Lengths:  10.472729  10.472729  10.472729
  Angles:   24.160518  24.160518  24.160518

Effective grid spacing dv^(1/3) = 0.1382

                     log10-error:    total        iterations:
           time      wfs    density  energy       fermi  poisson
iter:   1  14:30:23  +0.01   +inf   -20.256034    0
iter:   2  14:31:01  -1.79  -1.32   -20.212048    0
iter:   3  14:31:40  -2.42  -1.37   -20.056719    0
iter:   4  14:32:19  -2.73  -1.59   -20.071936    0
iter:   5  14:32:58  -3.77  -1.79   -20.069041    0
iter:   6  14:33:37  -3.50  -1.84   -20.055078    0
iter:   7  14:34:16  -3.63  -2.17   -20.054650    0
iter:   8  14:34:54  -4.48  -2.59   -20.054399    0
iter:   9  14:35:33  -4.43  -2.71   -20.054333    0
iter:  10  14:36:11  -5.45  -3.12   -20.054290    0
iter:  11  14:36:50  -5.79  -2.99   -20.054362    0
iter:  12  14:37:29  -6.31  -3.04   -20.054308    0
iter:  13  14:38:08  -5.61  -3.11   -20.054444    0
iter:  14  14:38:46  -5.61  -2.97   -20.054294    0
iter:  15  14:39:25  -5.85  -3.23   -20.054384    0
iter:  16  14:40:04  -5.77  -3.21   -20.054368    0
iter:  17  14:40:42  -6.53  -3.40   -20.054380    0
iter:  18  14:41:21  -6.03  -3.43   -20.054397    0
iter:  19  14:42:00  -6.92  -3.66   -20.054392    0
iter:  20  14:42:39  -7.57  -3.92   -20.054391    0
iter:  21  14:43:17  -7.59  -4.04   -20.054389    0

Converged after 21 iterations.

Dipole moment: (-0.000000, -0.000000, -0.000000) |e|*Ang

Energy contributions relative to reference atoms: (reference = -1724068.816207)

Kinetic:        +67.535718
Potential:      -64.314729
External:        +0.000000
XC:             -20.718618
Entropy (-ST):   -0.000000
Local:           -2.556761
Free energy:    -20.054389
Extrapolated:   -20.054389

Fermi level: 6.04323

Showing only first 2 kpts
 Kpt  Band  Eigenvalues  Occupancy
  0    22      5.04754    0.00391
  0    23      5.96345    0.00391
  0    24      6.22425    0.00000
  0    25      6.69581    0.00000

  1    22      5.52720    0.02344
  1    23      5.53102    0.02344
  1    24      6.67664    0.00000
  1    25      7.15125    0.00000

Writing to gs_Bi2Te3.gpw (mode='')

Date: Thu May  9 14:43:18 2019